<?xml version="1.0" encoding="UTF-8"?><osil xmlns="os.optimizationservices.org" xmlns:xsi="http://www.w3.org/2001/XMLSchema-instance" xsi:schemaLocation="os.optimizationservices.org http://www.optimizationservices.org/schemas/2.0/OSiL.xsd"><instanceHeader><name>nvs10</name></instanceHeader><instanceData><variables numberOfVariables="2"><var name="i1" type="I" ub="200"/><var name="i2" type="I" ub="200"/></variables><objectives><obj maxOrMin="min" name="defObj_objvar" numberOfObjCoef="2"><coef idx="0">-35</coef><coef idx="1">-80.4</coef></obj></objectives><constraints numberOfConstraints="2"><con name="e1" lb="-583"/><con name="e2" lb="-441"/></constraints><quadraticCoefficients numberOfQuadraticTerms="8"><qTerm idx="-1" idxOne="0" idxTwo="0" coef="7"/><qTerm idx="-1" idxOne="1" idxTwo="1" coef="6"/><qTerm idx="0" idxOne="0" idxTwo="0" coef="-9"/><qTerm idx="0" idxOne="0" idxTwo="1" coef="-10"/><qTerm idx="0" idxOne="1" idxTwo="1" coef="-8"/><qTerm idx="1" idxOne="0" idxTwo="0" coef="-6"/><qTerm idx="1" idxOne="0" idxTwo="1" coef="-8"/><qTerm idx="1" idxOne="1" idxTwo="1" coef="-6"/></quadraticCoefficients></instanceData></osil>